26
841
2
30,36,87,57,82,63,47,74,49,39,1,1,4,70,41,20,21,47,94,21,83,41,96,21,14,94
10,13,48,35,74,75,36,26,82,80,3,83,99,93,25,52,25,20,71,80,86,57,40,93,45,66
1,2,1,1,2,2,1,2,1,2,1,2,2,1,1,1,2,1,1,1,2,1,1,2,1,1
